c K to QBF translator. (C)Rice University.
c From input file 7-10.lwb
p cnf 519 1803
e 519 1 518 0
a 139 0
e 159 517 28 27 26 25 24 23 22 21 20 19 18 17 16 15 14 13 12 11 10 9 8 7 6 5 4 3 2 171 513 514 515 516 0
a 140 141 142 143 0
e 182 512 61 60 59 58 57 56 55 54 53 52 51 50 49 48 47 46 45 44 43 42 41 40 39 38 37 36 35 34 33 32 31 30 29 188 196 199 202 205 208 211 214 217 220 223 226 229 232 235 238 241 244 247 250 256 507 508 509 510 511 0
a 144 145 146 147 0
e 265 506 92 91 90 89 88 87 86 85 84 83 82 81 80 79 78 77 76 75 74 73 72 71 70 69 68 67 66 65 64 63 62 267 270 273 276 280 284 288 292 296 300 304 308 312 315 320 323 326 329 332 335 338 341 344 346 501 502 503 504 505 0
a 148 149 150 151 0
e 356 500 111 110 109 108 107 106 105 104 103 102 101 100 99 98 97 96 95 94 93 358 361 367 370 373 376 379 382 385 388 391 394 397 400 403 406 409 412 414 416 418 420 495 496 497 498 499 0
a 152 153 154 0
e 426 494 126 125 124 123 122 121 120 119 118 117 116 115 114 113 112 428 431 434 437 440 443 446 449 452 454 489 490 491 492 493 0
a 155 156 0
e 457 488 134 133 132 131 130 129 128 127 459 461 464 467 470 473 474 487 0
a 157 0
e 475 486 136 135 480 482 483 485 484 481 0
a 158 0
e 476 479 138 137 477 478 472 471 469 468 466 465 463 462 460 458 455 456 453 450 451 447 448 444 445 442 441 439 438 436 435 433 432 430 429 427 421 422 423 424 425 419 417 415 413 410 411 407 408 404 405 401 402 399 398 396 395 393 392 390 389 387 386 384 383 381 380 378 377 375 374 372 371 369 368 363 366 364 365 362 360 359 357 347 348 349 350 351 352 353 354 355 345 342 343 339 340 336 337 333 334 330 331 327 328 325 324 322 321 317 318 319 316 314 313 310 311 309 306 307 305 302 303 301 298 299 297 294 295 293 290 291 289 286 287 285 282 283 281 278 279 277 275 274 272 271 269 268 266 257 258 259 260 261 262 263 264 251 255 254 252 253 248 249 245 246 242 243 239 240 236 237 233 234 230 231 227 228 224 225 222 221 219 218 216 215 213 212 210 209 207 206 204 203 201 200 198 197 190 195 191 192 193 194 189 184 187 185 186 183 172 173 174 175 176 177 178 179 180 181 170 160 161 162 163 164 165 166 167 168 169 0
519  0 
519 -518 -1  0 
518 -519  0 
1 -519  0 
-518 159 517  0 
-159 518  0 
-517 518  0 
-159 -139 -1  0 
139 159  0 
1 159  0 
517 -171 -513 -514 -515 -516  0 
171 -517  0 
513 -517  0 
514 -517  0 
515 -517  0 
516 -517  0 
-171 -139 170  0 
139 171  0 
-170 171  0 
170 -21 -160 -161 -162 -163 -164 -165 -166 -167 -168 -169 -25 -24 -23  0 
21 -170  0 
160 -170  0 
161 -170  0 
162 -170  0 
163 -170  0 
164 -170  0 
165 -170  0 
166 -170  0 
167 -170  0 
168 -170  0 
169 -170  0 
25 -170  0 
24 -170  0 
23 -170  0 
-160 2 22  0 
-2 160  0 
-22 160  0 
-161 3 12  0 
-3 161  0 
-12 161  0 
-162 6 15  0 
-6 162  0 
-15 162  0 
-163 8 17  0 
-8 163  0 
-17 163  0 
-164 10 19  0 
-10 164  0 
-19 164  0 
-165 4 13  0 
-4 165  0 
-13 165  0 
-166 7 16  0 
-7 166  0 
-16 166  0 
-167 9 18  0 
-9 167  0 
-18 167  0 
-168 5 14  0 
-5 168  0 
-14 168  0 
-169 11 20  0 
-11 169  0 
-20 169  0 
-513 182 512  0 
-182 513  0 
-512 513  0 
182 -172 -173 -174 -175 -176 -177 -178 -179 -180 -181  0 
172 -182  0 
173 -182  0 
174 -182  0 
175 -182  0 
176 -182  0 
177 -182  0 
178 -182  0 
179 -182  0 
180 -182  0 
181 -182  0 
-172 -11 140 -141 -142 143  0 
11 172  0 
-140 172  0 
141 172  0 
142 172  0 
-143 172  0 
-173 -10 -140 -141 -142 143  0 
10 173  0 
140 173  0 
141 173  0 
142 173  0 
-143 173  0 
-174 -9 140 141 142 -143  0 
9 174  0 
-140 174  0 
-141 174  0 
-142 174  0 
143 174  0 
-175 -8 -140 141 142 -143  0 
8 175  0 
140 175  0 
-141 175  0 
-142 175  0 
143 175  0 
-176 -7 140 -141 142 -143  0 
7 176  0 
-140 176  0 
141 176  0 
-142 176  0 
143 176  0 
-177 -6 -140 -141 142 -143  0 
6 177  0 
140 177  0 
141 177  0 
-142 177  0 
143 177  0 
-178 -5 140 141 -142 -143  0 
5 178  0 
-140 178  0 
-141 178  0 
142 178  0 
143 178  0 
-179 -4 -140 141 -142 -143  0 
4 179  0 
140 179  0 
-141 179  0 
142 179  0 
143 179  0 
-180 -3 140 -141 -142 -143  0 
3 180  0 
-140 180  0 
141 180  0 
142 180  0 
143 180  0 
-181 -2 -140 -141 -142 -143  0 
2 181  0 
140 181  0 
141 181  0 
142 181  0 
143 181  0 
512 -188 -196 -199 -202 -205 -208 -211 -214 -217 -220 -223 -226 -229 -232 -235 -238 -241 -244 -247 -250 -256 -507 -508 -509 -510 -511  0 
188 -512  0 
196 -512  0 
199 -512  0 
202 -512  0 
205 -512  0 
208 -512  0 
211 -512  0 
214 -512  0 
217 -512  0 
220 -512  0 
223 -512  0 
226 -512  0 
229 -512  0 
232 -512  0 
235 -512  0 
238 -512  0 
241 -512  0 
244 -512  0 
247 -512  0 
250 -512  0 
256 -512  0 
507 -512  0 
508 -512  0 
509 -512  0 
510 -512  0 
511 -512  0 
-188 184 187  0 
-184 188  0 
-187 188  0 
-184 -22 183  0 
22 184  0 
-183 184  0 
183 11 10 9 8 7 6 5 4 3 2  0 
-11 -183  0 
-10 -183  0 
-9 -183  0 
-8 -183  0 
-7 -183  0 
-6 -183  0 
-5 -183  0 
-4 -183  0 
-3 -183  0 
-2 -183  0 
187 -185 -186  0 
185 -187  0 
186 -187  0 
-185 34 60  0 
-34 185  0 
-60 185  0 
-186 30 37  0 
-30 186  0 
-37 186  0 
-196 190 195  0 
-190 196  0 
-195 196  0 
-190 -21 189  0 
21 190  0 
-189 190  0 
189 11 10 9 8 7 6 5 4 3 2  0 
-11 -189  0 
-10 -189  0 
-9 -189  0 
-8 -189  0 
-7 -189  0 
-6 -189  0 
-5 -189  0 
-4 -189  0 
-3 -189  0 
-2 -189  0 
195 -191 -192 -193 -194  0 
191 -195  0 
192 -195  0 
193 -195  0 
194 -195  0 
-191 30 52  0 
-30 191  0 
-52 191  0 
-192 35 61  0 
-35 192  0 
-61 192  0 
-193 34 60  0 
-34 193  0 
-60 193  0 
-194 33 59  0 
-33 194  0 
-59 194  0 
-199 198 60 53 61  0 
-198 199  0 
-60 199  0 
-53 199  0 
-61 199  0 
-198 -20 197  0 
20 198  0 
-197 198  0 
197 11 10 9 8 7 6 5 4 3 2  0 
-11 -197  0 
-10 -197  0 
-9 -197  0 
-8 -197  0 
-7 -197  0 
-6 -197  0 
-5 -197  0 
-4 -197  0 
-3 -197  0 
-2 -197  0 
-202 201 60 51 61  0 
-201 202  0 
-60 202  0 
-51 202  0 
-61 202  0 
-201 -19 200  0 
19 201  0 
-200 201  0 
200 11 10 9 8 7 6 5 4 3 2  0 
-11 -200  0 
-10 -200  0 
-9 -200  0 
-8 -200  0 
-7 -200  0 
-6 -200  0 
-5 -200  0 
-4 -200  0 
-3 -200  0 
-2 -200  0 
-205 204 59 60 53 61  0 
-204 205  0 
-59 205  0 
-60 205  0 
-53 205  0 
-61 205  0 
-204 -18 203  0 
18 204  0 
-203 204  0 
203 11 10 9 8 7 6 5 4 3 2  0 
-11 -203  0 
-10 -203  0 
-9 -203  0 
-8 -203  0 
-7 -203  0 
-6 -203  0 
-5 -203  0 
-4 -203  0 
-3 -203  0 
-2 -203  0 
-208 207 59 60 51 61  0 
-207 208  0 
-59 208  0 
-60 208  0 
-51 208  0 
-61 208  0 
-207 -17 206  0 
17 207  0 
-206 207  0 
206 11 10 9 8 7 6 5 4 3 2  0 
-11 -206  0 
-10 -206  0 
-9 -206  0 
-8 -206  0 
-7 -206  0 
-6 -206  0 
-5 -206  0 
-4 -206  0 
-3 -206  0 
-2 -206  0 
-211 210 58 59 60 53 61  0 
-210 211  0 
-58 211  0 
-59 211  0 
-60 211  0 
-53 211  0 
-61 211  0 
-210 -16 209  0 
16 210  0 
-209 210  0 
209 11 10 9 8 7 6 5 4 3 2  0 
-11 -209  0 
-10 -209  0 
-9 -209  0 
-8 -209  0 
-7 -209  0 
-6 -209  0 
-5 -209  0 
-4 -209  0 
-3 -209  0 
-2 -209  0 
-214 213 58 59 60 51 61  0 
-213 214  0 
-58 214  0 
-59 214  0 
-60 214  0 
-51 214  0 
-61 214  0 
-213 -15 212  0 
15 213  0 
-212 213  0 
212 11 10 9 8 7 6 5 4 3 2  0 
-11 -212  0 
-10 -212  0 
-9 -212  0 
-8 -212  0 
-7 -212  0 
-6 -212  0 
-5 -212  0 
-4 -212  0 
-3 -212  0 
-2 -212  0 
-217 216 53 61  0 
-216 217  0 
-53 217  0 
-61 217  0 
-216 -14 215  0 
14 216  0 
-215 216  0 
215 11 10 9 8 7 6 5 4 3 2  0 
-11 -215  0 
-10 -215  0 
-9 -215  0 
-8 -215  0 
-7 -215  0 
-6 -215  0 
-5 -215  0 
-4 -215  0 
-3 -215  0 
-2 -215  0 
-220 219 51 61  0 
-219 220  0 
-51 220  0 
-61 220  0 
-219 -13 218  0 
13 219  0 
-218 219  0 
218 11 10 9 8 7 6 5 4 3 2  0 
-11 -218  0 
-10 -218  0 
-9 -218  0 
-8 -218  0 
-7 -218  0 
-6 -218  0 
-5 -218  0 
-4 -218  0 
-3 -218  0 
-2 -218  0 
-223 222 50 61  0 
-222 223  0 
-50 223  0 
-61 223  0 
-222 -12 221  0 
12 222  0 
-221 222  0 
221 11 10 9 8 7 6 5 4 3 2  0 
-11 -221  0 
-10 -221  0 
-9 -221  0 
-8 -221  0 
-7 -221  0 
-6 -221  0 
-5 -221  0 
-4 -221  0 
-3 -221  0 
-2 -221  0 
-226 224 225  0 
-224 226  0 
-225 226  0 
-224 140 -141 -142 143  0 
-140 224  0 
141 224  0 
142 224  0 
-143 224  0 
225 -49 -56 -36 -57  0 
49 -225  0 
56 -225  0 
36 -225  0 
57 -225  0 
-229 227 228  0 
-227 229  0 
-228 229  0 
-227 -140 -141 -142 143  0 
140 227  0 
141 227  0 
142 227  0 
-143 227  0 
228 -48 -56 -32 -57  0 
48 -228  0 
56 -228  0 
32 -228  0 
57 -228  0 
-232 230 231  0 
-230 232  0 
-231 232  0 
-230 140 141 142 -143  0 
-140 230  0 
-141 230  0 
-142 230  0 
143 230  0 
231 -47 -55 -56 -36 -57  0 
47 -231  0 
55 -231  0 
56 -231  0 
36 -231  0 
57 -231  0 
-235 233 234  0 
-233 235  0 
-234 235  0 
-233 -140 141 142 -143  0 
140 233  0 
-141 233  0 
-142 233  0 
143 233  0 
234 -46 -55 -56 -32 -57  0 
46 -234  0 
55 -234  0 
56 -234  0 
32 -234  0 
57 -234  0 
-238 236 237  0 
-236 238  0 
-237 238  0 
-236 140 -141 142 -143  0 
-140 236  0 
141 236  0 
-142 236  0 
143 236  0 
237 -45 -54 -55 -56 -36 -57  0 
45 -237  0 
54 -237  0 
55 -237  0 
56 -237  0 
36 -237  0 
57 -237  0 
-241 239 240  0 
-239 241  0 
-240 241  0 
-239 -140 -141 142 -143  0 
140 239  0 
141 239  0 
-142 239  0 
143 239  0 
240 -44 -54 -55 -56 -32 -57  0 
44 -240  0 
54 -240  0 
55 -240  0 
56 -240  0 
32 -240  0 
57 -240  0 
-244 242 243  0 
-242 244  0 
-243 244  0 
-242 140 141 -142 -143  0 
-140 242  0 
-141 242  0 
142 242  0 
143 242  0 
243 -43 -36 -57  0 
43 -243  0 
36 -243  0 
57 -243  0 
-247 245 246  0 
-245 247  0 
-246 247  0 
-245 -140 141 -142 -143  0 
140 245  0 
-141 245  0 
142 245  0 
143 245  0 
246 -42 -32 -57  0 
42 -246  0 
32 -246  0 
57 -246  0 
-250 248 249  0 
-248 250  0 
-249 250  0 
-248 140 -141 -142 -143  0 
-140 248  0 
141 248  0 
142 248  0 
143 248  0 
249 -41 -31 -57  0 
41 -249  0 
31 -249  0 
57 -249  0 
-256 251 255  0 
-251 256  0 
-255 256  0 
-251 -140 -141 -142 -143  0 
140 251  0 
141 251  0 
142 251  0 
143 251  0 
255 -39 -254  0 
39 -255  0 
254 -255  0 
-254 252 253  0 
-252 254  0 
-253 254  0 
252 -40 -56  0 
40 -252  0 
56 -252  0 
253 -38 -29  0 
38 -253  0 
29 -253  0 
-507 265 506  0 
-265 507  0 
-506 507  0 
265 -257 -258 -259 -260 -261 -262 -263 -264  0 
257 -265  0 
258 -265  0 
259 -265  0 
260 -265  0 
261 -265  0 
262 -265  0 
263 -265  0 
264 -265  0 
-257 -36 144 145 146 -147  0 
36 257  0 
-144 257  0 
-145 257  0 
-146 257  0 
147 257  0 
-258 -35 -144 145 146 -147  0 
35 258  0 
144 258  0 
-145 258  0 
-146 258  0 
147 258  0 
-259 -34 144 -145 146 -147  0 
34 259  0 
-144 259  0 
145 259  0 
-146 259  0 
147 259  0 
-260 -33 -144 -145 146 -147  0 
33 260  0 
144 260  0 
145 260  0 
-146 260  0 
147 260  0 
-261 -32 144 145 -146 -147  0 
32 261  0 
-144 261  0 
-145 261  0 
146 261  0 
147 261  0 
-262 -31 -144 145 -146 -147  0 
31 262  0 
144 262  0 
-145 262  0 
146 262  0 
147 262  0 
-263 -30 144 -145 -146 -147  0 
30 263  0 
-144 263  0 
145 263  0 
146 263  0 
147 263  0 
-264 -29 -144 -145 -146 -147  0 
29 264  0 
144 264  0 
145 264  0 
146 264  0 
147 264  0 
506 -267 -270 -273 -276 -280 -284 -288 -292 -296 -300 -304 -308 -312 -315 -320 -323 -326 -329 -332 -335 -338 -341 -344 -346 -501 -502 -503 -504 -505  0 
267 -506  0 
270 -506  0 
273 -506  0 
276 -506  0 
280 -506  0 
284 -506  0 
288 -506  0 
292 -506  0 
296 -506  0 
300 -506  0 
304 -506  0 
308 -506  0 
312 -506  0 
315 -506  0 
320 -506  0 
323 -506  0 
326 -506  0 
329 -506  0 
332 -506  0 
335 -506  0 
338 -506  0 
341 -506  0 
344 -506  0 
346 -506  0 
501 -506  0 
502 -506  0 
503 -506  0 
504 -506  0 
505 -506  0 
-267 -53 266  0 
53 267  0 
-266 267  0 
266 36 35 34 33 32 31 30 29  0 
-36 -266  0 
-35 -266  0 
-34 -266  0 
-33 -266  0 
-32 -266  0 
-31 -266  0 
-30 -266  0 
-29 -266  0 
-270 269 91  0 
-269 270  0 
-91 270  0 
-269 -52 268  0 
52 269  0 
-268 269  0 
268 36 35 34 33 32 31 30 29  0 
-36 -268  0 
-35 -268  0 
-34 -268  0 
-33 -268  0 
-32 -268  0 
-31 -268  0 
-30 -268  0 
-29 -268  0 
-273 272 89 90 91 84 92  0 
-272 273  0 
-89 273  0 
-90 273  0 
-91 273  0 
-84 273  0 
-92 273  0 
-272 -51 271  0 
51 272  0 
-271 272  0 
271 36 35 34 33 32 31 30 29  0 
-36 -271  0 
-35 -271  0 
-34 -271  0 
-33 -271  0 
-32 -271  0 
-31 -271  0 
-30 -271  0 
-29 -271  0 
-276 275 89 90 91 77 92  0 
-275 276  0 
-89 276  0 
-90 276  0 
-91 276  0 
-77 276  0 
-92 276  0 
-275 -50 274  0 
50 275  0 
-274 275  0 
274 36 35 34 33 32 31 30 29  0 
-36 -274  0 
-35 -274  0 
-34 -274  0 
-33 -274  0 
-32 -274  0 
-31 -274  0 
-30 -274  0 
-29 -274  0 
-280 278 279 81  0 
-278 280  0 
-279 280  0 
-81 280  0 
-278 -49 277  0 
49 278  0 
-277 278  0 
277 36 35 34 33 32 31 30 29  0 
-36 -277  0 
-35 -277  0 
-34 -277  0 
-33 -277  0 
-32 -277  0 
-31 -277  0 
-30 -277  0 
-29 -277  0 
279 -87 -70 -88  0 
87 -279  0 
70 -279  0 
88 -279  0 
-284 282 283 80  0 
-282 284  0 
-283 284  0 
-80 284  0 
-282 -48 281  0 
48 282  0 
-281 282  0 
281 36 35 34 33 32 31 30 29  0 
-36 -281  0 
-35 -281  0 
-34 -281  0 
-33 -281  0 
-32 -281  0 
-31 -281  0 
-30 -281  0 
-29 -281  0 
283 -87 -68 -88  0 
87 -283  0 
68 -283  0 
88 -283  0 
-288 286 287 79  0 
-286 288  0 
-287 288  0 
-79 288  0 
-286 -47 285  0 
47 286  0 
-285 286  0 
285 36 35 34 33 32 31 30 29  0 
-36 -285  0 
-35 -285  0 
-34 -285  0 
-33 -285  0 
-32 -285  0 
-31 -285  0 
-30 -285  0 
-29 -285  0 
287 -86 -87 -70 -88  0 
86 -287  0 
87 -287  0 
70 -287  0 
88 -287  0 
-292 290 291 78  0 
-290 292  0 
-291 292  0 
-78 292  0 
-290 -46 289  0 
46 290  0 
-289 290  0 
289 36 35 34 33 32 31 30 29  0 
-36 -289  0 
-35 -289  0 
-34 -289  0 
-33 -289  0 
-32 -289  0 
-31 -289  0 
-30 -289  0 
-29 -289  0 
291 -86 -87 -68 -88  0 
86 -291  0 
87 -291  0 
68 -291  0 
88 -291  0 
-296 294 295 77  0 
-294 296  0 
-295 296  0 
-77 296  0 
-294 -45 293  0 
45 294  0 
-293 294  0 
293 36 35 34 33 32 31 30 29  0 
-36 -293  0 
-35 -293  0 
-34 -293  0 
-33 -293  0 
-32 -293  0 
-31 -293  0 
-30 -293  0 
-29 -293  0 
295 -85 -86 -87 -70 -88  0 
85 -295  0 
86 -295  0 
87 -295  0 
70 -295  0 
88 -295  0 
-300 298 299 76  0 
-298 300  0 
-299 300  0 
-76 300  0 
-298 -44 297  0 
44 298  0 
-297 298  0 
297 36 35 34 33 32 31 30 29  0 
-36 -297  0 
-35 -297  0 
-34 -297  0 
-33 -297  0 
-32 -297  0 
-31 -297  0 
-30 -297  0 
-29 -297  0 
299 -85 -86 -87 -68 -88  0 
85 -299  0 
86 -299  0 
87 -299  0 
68 -299  0 
88 -299  0 
-304 302 303 74  0 
-302 304  0 
-303 304  0 
-74 304  0 
-302 -43 301  0 
43 302  0 
-301 302  0 
301 36 35 34 33 32 31 30 29  0 
-36 -301  0 
-35 -301  0 
-34 -301  0 
-33 -301  0 
-32 -301  0 
-31 -301  0 
-30 -301  0 
-29 -301  0 
303 -70 -88  0 
70 -303  0 
88 -303  0 
-308 306 307 73  0 
-306 308  0 
-307 308  0 
-73 308  0 
-306 -42 305  0 
42 306  0 
-305 306  0 
305 36 35 34 33 32 31 30 29  0 
-36 -305  0 
-35 -305  0 
-34 -305  0 
-33 -305  0 
-32 -305  0 
-31 -305  0 
-30 -305  0 
-29 -305  0 
307 -68 -88  0 
68 -307  0 
88 -307  0 
-312 310 311 72  0 
-310 312  0 
-311 312  0 
-72 312  0 
-310 -41 309  0 
41 310  0 
-309 310  0 
309 36 35 34 33 32 31 30 29  0 
-36 -309  0 
-35 -309  0 
-34 -309  0 
-33 -309  0 
-32 -309  0 
-31 -309  0 
-30 -309  0 
-29 -309  0 
311 -67 -88  0 
67 -311  0 
88 -311  0 
-315 314 87 83  0 
-314 315  0 
-87 315  0 
-83 315  0 
-314 -40 313  0 
40 314  0 
-313 314  0 
313 36 35 34 33 32 31 30 29  0 
-36 -313  0 
-35 -313  0 
-34 -313  0 
-33 -313  0 
-32 -313  0 
-31 -313  0 
-30 -313  0 
-29 -313  0 
-320 317 82 318 319  0 
-317 320  0 
-82 320  0 
-318 320  0 
-319 320  0 
-317 -39 316  0 
39 317  0 
-316 317  0 
316 36 35 34 33 32 31 30 29  0 
-36 -316  0 
-35 -316  0 
-34 -316  0 
-33 -316  0 
-32 -316  0 
-31 -316  0 
-30 -316  0 
-29 -316  0 
318 -75 -87  0 
75 -318  0 
87 -318  0 
319 -71 -62  0 
71 -319  0 
62 -319  0 
-323 322 69 91  0 
-322 323  0 
-69 323  0 
-91 323  0 
-322 -38 321  0 
38 322  0 
-321 322  0 
321 36 35 34 33 32 31 30 29  0 
-36 -321  0 
-35 -321  0 
-34 -321  0 
-33 -321  0 
-32 -321  0 
-31 -321  0 
-30 -321  0 
-29 -321  0 
-326 325 71  0 
-325 326  0 
-71 326  0 
-325 -37 324  0 
37 325  0 
-324 325  0 
324 36 35 34 33 32 31 30 29  0 
-36 -324  0 
-35 -324  0 
-34 -324  0 
-33 -324  0 
-32 -324  0 
-31 -324  0 
-30 -324  0 
-29 -324  0 
-329 327 328  0 
-327 329  0 
-328 329  0 
-327 -144 145 146 -147  0 
144 327  0 
-145 327  0 
-146 327  0 
147 327  0 
328 -92 -65  0 
92 -328  0 
65 -328  0 
-332 330 331  0 
-330 332  0 
-331 332  0 
-330 144 -145 146 -147  0 
-144 330  0 
145 330  0 
-146 330  0 
147 330  0 
331 -91 -64  0 
91 -331  0 
64 -331  0 
-335 333 334  0 
-333 335  0 
-334 335  0 
-333 -144 -145 146 -147  0 
144 333  0 
145 333  0 
-146 333  0 
147 333  0 
334 -90 -63  0 
90 -334  0 
63 -334  0 
-338 336 337  0 
-336 338  0 
-337 338  0 
-336 144 145 -146 -147  0 
-144 336  0 
-145 336  0 
146 336  0 
147 336  0 
337 -85 -86 -87 -70 -88  0 
85 -337  0 
86 -337  0 
87 -337  0 
70 -337  0 
88 -337  0 
-341 339 340  0 
-339 341  0 
-340 341  0 
-339 -144 145 -146 -147  0 
144 339  0 
-145 339  0 
146 339  0 
147 339  0 
340 -85 -86 -87 -68 -88  0 
85 -340  0 
86 -340  0 
87 -340  0 
68 -340  0 
88 -340  0 
-344 342 343  0 
-342 344  0 
-343 344  0 
-342 144 -145 -146 -147  0 
-144 342  0 
145 342  0 
146 342  0 
147 342  0 
343 -75 -87  0 
75 -343  0 
87 -343  0 
-346 345 66  0 
-345 346  0 
-66 346  0 
-345 -144 -145 -146 -147  0 
144 345  0 
145 345  0 
146 345  0 
147 345  0 
-501 356 500  0 
-356 501  0 
-500 501  0 
356 -347 -348 -349 -350 -351 -352 -353 -354 -355  0 
347 -356  0 
348 -356  0 
349 -356  0 
350 -356  0 
351 -356  0 
352 -356  0 
353 -356  0 
354 -356  0 
355 -356  0 
-347 -70 -148 -149 -150 151  0 
70 347  0 
148 347  0 
149 347  0 
150 347  0 
-151 347  0 
-348 -69 148 149 150 -151  0 
69 348  0 
-148 348  0 
-149 348  0 
-150 348  0 
151 348  0 
-349 -68 -148 149 150 -151  0 
68 349  0 
148 349  0 
-149 349  0 
-150 349  0 
151 349  0 
-350 -67 148 -149 150 -151  0 
67 350  0 
-148 350  0 
149 350  0 
-150 350  0 
151 350  0 
-351 -66 -148 -149 150 -151  0 
66 351  0 
148 351  0 
149 351  0 
-150 351  0 
151 351  0 
-352 -65 148 149 -150 -151  0 
65 352  0 
-148 352  0 
-149 352  0 
150 352  0 
151 352  0 
-353 -64 -148 149 -150 -151  0 
64 353  0 
148 353  0 
-149 353  0 
150 353  0 
151 353  0 
-354 -63 148 -149 -150 -151  0 
63 354  0 
-148 354  0 
149 354  0 
150 354  0 
151 354  0 
-355 -62 -148 -149 -150 -151  0 
62 355  0 
148 355  0 
149 355  0 
150 355  0 
151 355  0 
500 -358 -361 -367 -370 -373 -376 -379 -382 -385 -388 -391 -394 -397 -400 -403 -406 -409 -412 -414 -416 -418 -420 -495 -496 -497 -498 -499  0 
358 -500  0 
361 -500  0 
367 -500  0 
370 -500  0 
373 -500  0 
376 -500  0 
379 -500  0 
382 -500  0 
385 -500  0 
388 -500  0 
391 -500  0 
394 -500  0 
397 -500  0 
400 -500  0 
403 -500  0 
406 -500  0 
409 -500  0 
412 -500  0 
414 -500  0 
416 -500  0 
418 -500  0 
420 -500  0 
495 -500  0 
496 -500  0 
497 -500  0 
498 -500  0 
499 -500  0 
-358 -84 357  0 
84 358  0 
-357 358  0 
357 70 69 68 67 66 65 64 63 62  0 
-70 -357  0 
-69 -357  0 
-68 -357  0 
-67 -357  0 
-66 -357  0 
-65 -357  0 
-64 -357  0 
-63 -357  0 
-62 -357  0 
-361 360 110  0 
-360 361  0 
-110 361  0 
-360 -83 359  0 
83 360  0 
-359 360  0 
359 70 69 68 67 66 65 64 63 62  0 
-70 -359  0 
-69 -359  0 
-68 -359  0 
-67 -359  0 
-66 -359  0 
-65 -359  0 
-64 -359  0 
-63 -359  0 
-62 -359  0 
-367 363 366  0 
-363 367  0 
-366 367  0 
-363 -82 362  0 
82 363  0 
-362 363  0 
362 70 69 68 67 66 65 64 63 62  0 
-70 -362  0 
-69 -362  0 
-68 -362  0 
-67 -362  0 
-66 -362  0 
-65 -362  0 
-64 -362  0 
-63 -362  0 
-62 -362  0 
366 -364 -365  0 
364 -366  0 
365 -366  0 
-364 96 110  0 
-96 364  0 
-110 364  0 
-365 94 98  0 
-94 365  0 
-98 365  0 
-370 369 110 103 111  0 
-369 370  0 
-110 370  0 
-103 370  0 
-111 370  0 
-369 -81 368  0 
81 369  0 
-368 369  0 
368 70 69 68 67 66 65 64 63 62  0 
-70 -368  0 
-69 -368  0 
-68 -368  0 
-67 -368  0 
-66 -368  0 
-65 -368  0 
-64 -368  0 
-63 -368  0 
-62 -368  0 
-373 372 110 101 111  0 
-372 373  0 
-110 373  0 
-101 373  0 
-111 373  0 
-372 -80 371  0 
80 372  0 
-371 372  0 
371 70 69 68 67 66 65 64 63 62  0 
-70 -371  0 
-69 -371  0 
-68 -371  0 
-67 -371  0 
-66 -371  0 
-65 -371  0 
-64 -371  0 
-63 -371  0 
-62 -371  0 
-376 375 109 110 103 111  0 
-375 376  0 
-109 376  0 
-110 376  0 
-103 376  0 
-111 376  0 
-375 -79 374  0 
79 375  0 
-374 375  0 
374 70 69 68 67 66 65 64 63 62  0 
-70 -374  0 
-69 -374  0 
-68 -374  0 
-67 -374  0 
-66 -374  0 
-65 -374  0 
-64 -374  0 
-63 -374  0 
-62 -374  0 
-379 378 109 110 101 111  0 
-378 379  0 
-109 379  0 
-110 379  0 
-101 379  0 
-111 379  0 
-378 -78 377  0 
78 378  0 
-377 378  0 
377 70 69 68 67 66 65 64 63 62  0 
-70 -377  0 
-69 -377  0 
-68 -377  0 
-67 -377  0 
-66 -377  0 
-65 -377  0 
-64 -377  0 
-63 -377  0 
-62 -377  0 
-382 381 108 109 110 103 111  0 
-381 382  0 
-108 382  0 
-109 382  0 
-110 382  0 
-103 382  0 
-111 382  0 
-381 -77 380  0 
77 381  0 
-380 381  0 
380 70 69 68 67 66 65 64 63 62  0 
-70 -380  0 
-69 -380  0 
-68 -380  0 
-67 -380  0 
-66 -380  0 
-65 -380  0 
-64 -380  0 
-63 -380  0 
-62 -380  0 
-385 384 108 109 110 101 111  0 
-384 385  0 
-108 385  0 
-109 385  0 
-110 385  0 
-101 385  0 
-111 385  0 
-384 -76 383  0 
76 384  0 
-383 384  0 
383 70 69 68 67 66 65 64 63 62  0 
-70 -383  0 
-69 -383  0 
-68 -383  0 
-67 -383  0 
-66 -383  0 
-65 -383  0 
-64 -383  0 
-63 -383  0 
-62 -383  0 
-388 387 106 102  0 
-387 388  0 
-106 388  0 
-102 388  0 
-387 -75 386  0 
75 387  0 
-386 387  0 
386 70 69 68 67 66 65 64 63 62  0 
-70 -386  0 
-69 -386  0 
-68 -386  0 
-67 -386  0 
-66 -386  0 
-65 -386  0 
-64 -386  0 
-63 -386  0 
-62 -386  0 
-391 390 103 111  0 
-390 391  0 
-103 391  0 
-111 391  0 
-390 -74 389  0 
74 390  0 
-389 390  0 
389 70 69 68 67 66 65 64 63 62  0 
-70 -389  0 
-69 -389  0 
-68 -389  0 
-67 -389  0 
-66 -389  0 
-65 -389  0 
-64 -389  0 
-63 -389  0 
-62 -389  0 
-394 393 101 111  0 
-393 394  0 
-101 394  0 
-111 394  0 
-393 -73 392  0 
73 393  0 
-392 393  0 
392 70 69 68 67 66 65 64 63 62  0 
-70 -392  0 
-69 -392  0 
-68 -392  0 
-67 -392  0 
-66 -392  0 
-65 -392  0 
-64 -392  0 
-63 -392  0 
-62 -392  0 
-397 396 100 111  0 
-396 397  0 
-100 397  0 
-111 397  0 
-396 -72 395  0 
72 396  0 
-395 396  0 
395 70 69 68 67 66 65 64 63 62  0 
-70 -395  0 
-69 -395  0 
-68 -395  0 
-67 -395  0 
-66 -395  0 
-65 -395  0 
-64 -395  0 
-63 -395  0 
-62 -395  0 
-400 399 96 110  0 
-399 400  0 
-96 400  0 
-110 400  0 
-399 -71 398  0 
71 399  0 
-398 399  0 
398 70 69 68 67 66 65 64 63 62  0 
-70 -398  0 
-69 -398  0 
-68 -398  0 
-67 -398  0 
-66 -398  0 
-65 -398  0 
-64 -398  0 
-63 -398  0 
-62 -398  0 
-403 401 402  0 
-401 403  0 
-402 403  0 
-401 148 149 150 -151  0 
-148 401  0 
-149 401  0 
-150 401  0 
151 401  0 
402 -110 -93  0 
110 -402  0 
93 -402  0 
-406 404 405  0 
-404 406  0 
-405 406  0 
-404 -148 149 150 -151  0 
148 404  0 
-149 404  0 
-150 404  0 
151 404  0 
405 -104 -105 -106 -97 -107  0 
104 -405  0 
105 -405  0 
106 -405  0 
97 -405  0 
107 -405  0 
-409 407 408  0 
-407 409  0 
-408 409  0 
-407 148 -149 150 -151  0 
-148 407  0 
149 407  0 
-150 407  0 
151 407  0 
408 -104 -105 -106 -95 -107  0 
104 -408  0 
105 -408  0 
106 -408  0 
95 -408  0 
107 -408  0 
-412 410 411  0 
-410 412  0 
-411 412  0 
-410 -148 -149 150 -151  0 
148 410  0 
149 410  0 
-150 410  0 
151 410  0 
411 -99 -106  0 
99 -411  0 
106 -411  0 
-414 413 107  0 
-413 414  0 
-107 414  0 
-413 148 149 -150 -151  0 
-148 413  0 
-149 413  0 
150 413  0 
151 413  0 
-416 415 106  0 
-415 416  0 
-106 416  0 
-415 -148 149 -150 -151  0 
148 415  0 
-149 415  0 
150 415  0 
151 415  0 
-418 417 105  0 
-417 418  0 
-105 418  0 
-417 148 -149 -150 -151  0 
-148 417  0 
149 417  0 
150 417  0 
151 417  0 
-420 419 94  0 
-419 420  0 
-94 420  0 
-419 -148 -149 -150 -151  0 
148 419  0 
149 419  0 
150 419  0 
151 419  0 
-495 426 494  0 
-426 495  0 
-494 495  0 
426 -421 -422 -423 -424 -425  0 
421 -426  0 
422 -426  0 
423 -426  0 
424 -426  0 
425 -426  0 
-421 -97 -152 -153 154  0 
97 421  0 
152 421  0 
153 421  0 
-154 421  0 
-422 -96 152 153 -154  0 
96 422  0 
-152 422  0 
-153 422  0 
154 422  0 
-423 -95 -152 153 -154  0 
95 423  0 
152 423  0 
-153 423  0 
154 423  0 
-424 -94 152 -153 -154  0 
94 424  0 
-152 424  0 
153 424  0 
154 424  0 
-425 -93 -152 -153 -154  0 
93 425  0 
152 425  0 
153 425  0 
154 425  0 
494 -428 -431 -434 -437 -440 -443 -446 -449 -452 -454 -489 -490 -491 -492 -493  0 
428 -494  0 
431 -494  0 
434 -494  0 
437 -494  0 
440 -494  0 
443 -494  0 
446 -494  0 
449 -494  0 
452 -494  0 
454 -494  0 
489 -494  0 
490 -494  0 
491 -494  0 
492 -494  0 
493 -494  0 
-428 -103 427  0 
103 428  0 
-427 428  0 
427 97 96 95 94 93  0 
-97 -427  0 
-96 -427  0 
-95 -427  0 
-94 -427  0 
-93 -427  0 
-431 430 125  0 
-430 431  0 
-125 431  0 
-430 -102 429  0 
102 430  0 
-429 430  0 
429 97 96 95 94 93  0 
-97 -429  0 
-96 -429  0 
-95 -429  0 
-94 -429  0 
-93 -429  0 
-434 433 123 124 125 118 126  0 
-433 434  0 
-123 434  0 
-124 434  0 
-125 434  0 
-118 434  0 
-126 434  0 
-433 -101 432  0 
101 433  0 
-432 433  0 
432 97 96 95 94 93  0 
-97 -432  0 
-96 -432  0 
-95 -432  0 
-94 -432  0 
-93 -432  0 
-437 436 123 124 125 116 126  0 
-436 437  0 
-123 437  0 
-124 437  0 
-125 437  0 
-116 437  0 
-126 437  0 
-436 -100 435  0 
100 436  0 
-435 436  0 
435 97 96 95 94 93  0 
-97 -435  0 
-96 -435  0 
-95 -435  0 
-94 -435  0 
-93 -435  0 
-440 439 121 117  0 
-439 440  0 
-121 440  0 
-117 440  0 
-439 -99 438  0 
99 439  0 
-438 439  0 
438 97 96 95 94 93  0 
-97 -438  0 
-96 -438  0 
-95 -438  0 
-94 -438  0 
-93 -438  0 
-443 442 114  0 
-442 443  0 
-114 443  0 
-442 -98 441  0 
98 442  0 
-441 442  0 
441 97 96 95 94 93  0 
-97 -441  0 
-96 -441  0 
-95 -441  0 
-94 -441  0 
-93 -441  0 
-446 444 445  0 
-444 446  0 
-445 446  0 
-444 152 153 -154  0 
-152 444  0 
-153 444  0 
154 444  0 
445 -125 -112  0 
125 -445  0 
112 -445  0 
-449 447 448  0 
-447 449  0 
-448 449  0 
-447 -152 153 -154  0 
152 447  0 
-153 447  0 
154 447  0 
448 -119 -120 -121 -113 -122  0 
119 -448  0 
120 -448  0 
121 -448  0 
113 -448  0 
122 -448  0 
-452 450 451  0 
-450 452  0 
-451 452  0 
-450 152 -153 -154  0 
-152 450  0 
153 450  0 
154 450  0 
451 -115 -121  0 
115 -451  0 
121 -451  0 
-454 453 121  0 
-453 454  0 
-121 454  0 
-453 -152 -153 -154  0 
152 453  0 
153 453  0 
154 453  0 
-489 457 488  0 
-457 489  0 
-488 489  0 
457 -455 -456  0 
455 -457  0 
456 -457  0 
-455 -113 155 -156  0 
113 455  0 
-155 455  0 
156 455  0 
-456 -112 -155 -156  0 
112 456  0 
155 456  0 
156 456  0 
488 -459 -461 -464 -467 -470 -473 -474 -487  0 
459 -488  0 
461 -488  0 
464 -488  0 
467 -488  0 
470 -488  0 
473 -488  0 
474 -488  0 
487 -488  0 
-459 458 130  0 
-458 459  0 
-130 459  0 
-458 -155 -156  0 
155 458  0 
156 458  0 
-461 -118 460  0 
118 461  0 
-460 461  0 
460 113 112  0 
-113 -460  0 
-112 -460  0 
-464 463 133  0 
-463 464  0 
-133 464  0 
-463 -117 462  0 
117 463  0 
-462 463  0 
462 113 112  0 
-113 -462  0 
-112 -462  0 
-467 466 131 132 133 129 134  0 
-466 467  0 
-131 467  0 
-132 467  0 
-133 467  0 
-129 467  0 
-134 467  0 
-466 -116 465  0 
116 466  0 
-465 466  0 
465 113 112  0 
-113 -465  0 
-112 -465  0 
-470 469 130 128  0 
-469 470  0 
-130 470  0 
-128 470  0 
-469 -115 468  0 
115 469  0 
-468 469  0 
468 113 112  0 
-113 -468  0 
-112 -468  0 
-473 472 127 133  0 
-472 473  0 
-127 473  0 
-133 473  0 
-472 -114 471  0 
114 472  0 
-471 472  0 
471 113 112  0 
-113 -471  0 
-112 -471  0 
-474 -130 -133  0 
130 474  0 
133 474  0 
-487 475 486  0 
-475 487  0 
-486 487  0 
-475 -157 -127  0 
157 475  0 
127 475  0 
486 -480 -482 -483 -485  0 
480 -486  0 
482 -486  0 
483 -486  0 
485 -486  0 
-480 476 479  0 
-476 480  0 
-479 480  0 
-476 -158 -135  0 
158 476  0 
135 476  0 
479 -477 -478  0 
477 -479  0 
478 -479  0 
-477 -158 137  0 
158 477  0 
-137 477  0 
-478 -137 -138  0 
137 478  0 
138 478  0 
-482 -157 481  0 
157 482  0 
-481 482  0 
481 -136 -135  0 
136 -481  0 
135 -481  0 
-483 -129 -127  0 
129 483  0 
127 483  0 
-485 484 136  0 
-484 485  0 
-136 485  0 
-484 -128 -127  0 
128 484  0 
127 484  0 
-490 -122 -126  0 
122 490  0 
126 490  0 
-491 -121 -125  0 
121 491  0 
125 491  0 
-492 -120 -124  0 
120 492  0 
124 492  0 
-493 -119 -123  0 
119 493  0 
123 493  0 
-496 -107 -111  0 
107 496  0 
111 496  0 
-497 -106 -110  0 
106 497  0 
110 497  0 
-498 -105 -109  0 
105 498  0 
109 498  0 
-499 -104 -108  0 
104 499  0 
108 499  0 
-502 -88 -92  0 
88 502  0 
92 502  0 
-503 -87 -91  0 
87 503  0 
91 503  0 
-504 -86 -90  0 
86 504  0 
90 504  0 
-505 -85 -89  0 
85 505  0 
89 505  0 
-508 -57 -61  0 
57 508  0 
61 508  0 
-509 -56 -60  0 
56 509  0 
60 509  0 
-510 -55 -59  0 
55 510  0 
59 510  0 
-511 -54 -58  0 
54 511  0 
58 511  0 
-514 -25 -28  0 
25 514  0 
28 514  0 
-515 -24 -27  0 
24 515  0 
27 515  0 
-516 -23 -26  0 
23 516  0 
26 516  0 
